
===== New CPLEX run =====
Instance: /home/yorig/tuner/mpils-tests/instances/miplib/medium-1/neos-3555904-turama.mps
Config: /scratch/yorig/mpils-results-grid-seconds-10-no-mip-start/medium-1/4proc/seed-3/10_neos-3555904-turama_seed-3_20260503_044838/iterated_local_search/run_2_worker_2/ils_config_18095623908263461067.prm
========================

Selected objective sense:  MINIMIZE
Selected objective  name:  Obj
Selected RHS        name:  RHS
Selected bound      name:  Bound
Version identifier: 22.1.2.0 | 2024-11-26 | 0edbb82fd
CPXPARAM_Threads                                 8
CPXPARAM_Parallel                                1
CPXPARAM_MIP_Cuts_Cliques                        1
CPXPARAM_MIP_Cuts_FlowCovers                     2
CPXPARAM_MIP_Cuts_Implied                        1
CPXPARAM_MIP_Cuts_GUBCovers                      -1
CPXPARAM_MIP_Limits_GomoryCand                   400
CPXPARAM_MIP_Cuts_PathCut                        2
CPXPARAM_MIP_Cuts_MIRCut                         1
CPXPARAM_Emphasis_MIP                            1
CPXPARAM_TimeLimit                               10
Tried aggregator 3 times.
MIP Presolve eliminated 88266 rows and 7696 columns.
MIP Presolve modified 93290 coefficients.
Aggregator did 11080 substitutions.
Reduced MIP has 47145 rows, 18685 columns, and 201232 nonzeros.
Reduced MIP has 18685 binaries, 0 generals, 0 SOSs, and 0 indicators.
Presolve time = 0.83 sec. (1435.97 ticks)
Found incumbent of value -33.200000 after 1.05 sec. (1819.77 ticks)
Probing fixed 2456 vars, tightened 0 bounds.
Probing changed sense of 6 constraints.
Probing time = 1.15 sec. (1226.29 ticks)
Tried aggregator 2 times.
MIP Presolve eliminated 9109 rows and 2642 columns.
MIP Presolve modified 5050 coefficients.
Aggregator did 410 substitutions.
Reduced MIP has 37623 rows, 15633 columns, and 145869 nonzeros.
Reduced MIP has 15633 binaries, 0 generals, 0 SOSs, and 0 indicators.
Presolve time = 0.32 sec. (568.73 ticks)
Probing fixed 494 vars, tightened 0 bounds.
Probing time = 0.56 sec. (600.78 ticks)
Tried aggregator 2 times.
Detecting symmetries...
MIP Presolve eliminated 3147 rows and 660 columns.
MIP Presolve modified 588 coefficients.
Aggregator did 651 substitutions.
Reduced MIP has 33825 rows, 14322 columns, and 131337 nonzeros.
Reduced MIP has 14322 binaries, 0 generals, 0 SOSs, and 0 indicators.
Presolve time = 0.29 sec. (517.68 ticks)
Probing time = 0.02 sec. (16.92 ticks)
Clique table members: 87904.
MIP emphasis: integer feasibility.
MIP search method: dynamic search.
Parallel mode: deterministic, using up to 8 threads.
Root relaxation solution time = 1.14 sec. (1414.56 ticks)

        Nodes                                         Cuts/
   Node  Left     Objective  IInf  Best Integer    Best Bound    ItCnt     Gap

*     0+    0                          -33.2000   -27044.9000              --- 
      0     0      -40.9500    62      -33.2000      -40.9500    14915   23.34%

Clique cuts applied:  0
Implied bound cuts applied:  0
Flow cuts applied:  0
Mixed integer rounding cuts applied:  0
Flow path cuts applied:  0

Root node processing (before b&c):
  Real time             =   10.01 sec. (13696.01 ticks)
Parallel b&c, 8 threads:
  Real time             =    0.00 sec. (0.00 ticks)
  Sync time (average)   =    0.00 sec.
  Wait time (average)   =    0.00 sec.
                          ------------
Total (root+branch&cut) =   10.01 sec. (13696.01 ticks)
Gap: 23.34%
Upper bound: -33.2
Lower bound: -40.95
End of CPLEX run. Time: 10.0138 seconds

===== New CPLEX run =====
Instance: /home/yorig/tuner/mpils-tests/instances/miplib/medium-1/neos-3555904-turama.mps
Config: /scratch/yorig/mpils-results-grid-seconds-10-no-mip-start/medium-1/4proc/seed-3/10_neos-3555904-turama_seed-3_20260503_044838/iterated_local_search/run_2_worker_2/ils_config_13925732627905658975.prm
========================

Selected objective sense:  MINIMIZE
Selected objective  name:  Obj
Selected RHS        name:  RHS
Selected bound      name:  Bound
Version identifier: 22.1.2.0 | 2024-11-26 | 0edbb82fd
CPXPARAM_Threads                                 8
CPXPARAM_Parallel                                1
CPXPARAM_MIP_Cuts_Cliques                        1
CPXPARAM_MIP_Cuts_FlowCovers                     -1
CPXPARAM_MIP_Cuts_Implied                        1
CPXPARAM_MIP_Cuts_GUBCovers                      -1
CPXPARAM_MIP_Limits_GomoryCand                   400
CPXPARAM_MIP_Cuts_PathCut                        2
CPXPARAM_MIP_Cuts_MIRCut                         1
CPXPARAM_Emphasis_MIP                            1
CPXPARAM_TimeLimit                               10
Tried aggregator 3 times.
MIP Presolve eliminated 88266 rows and 7696 columns.
MIP Presolve modified 93290 coefficients.
Aggregator did 11080 substitutions.
Reduced MIP has 47145 rows, 18685 columns, and 201232 nonzeros.
Reduced MIP has 18685 binaries, 0 generals, 0 SOSs, and 0 indicators.
Presolve time = 0.83 sec. (1435.97 ticks)
Found incumbent of value -33.200000 after 1.05 sec. (1819.77 ticks)
Probing fixed 2456 vars, tightened 0 bounds.
Probing changed sense of 6 constraints.
Probing time = 1.15 sec. (1226.29 ticks)
Tried aggregator 2 times.
MIP Presolve eliminated 9109 rows and 2642 columns.
MIP Presolve modified 5050 coefficients.
Aggregator did 410 substitutions.
Reduced MIP has 37623 rows, 15633 columns, and 145869 nonzeros.
Reduced MIP has 15633 binaries, 0 generals, 0 SOSs, and 0 indicators.
Presolve time = 0.32 sec. (568.73 ticks)
Probing fixed 494 vars, tightened 0 bounds.
Probing time = 0.56 sec. (600.78 ticks)
Tried aggregator 2 times.
Detecting symmetries...
MIP Presolve eliminated 3147 rows and 660 columns.
MIP Presolve modified 588 coefficients.
Aggregator did 651 substitutions.
Reduced MIP has 33825 rows, 14322 columns, and 131337 nonzeros.
Reduced MIP has 14322 binaries, 0 generals, 0 SOSs, and 0 indicators.
Presolve time = 0.29 sec. (517.68 ticks)
Probing time = 0.02 sec. (16.92 ticks)
Clique table members: 87904.
MIP emphasis: integer feasibility.
MIP search method: dynamic search.
Parallel mode: deterministic, using up to 8 threads.
Root relaxation solution time = 1.14 sec. (1414.56 ticks)

        Nodes                                         Cuts/
   Node  Left     Objective  IInf  Best Integer    Best Bound    ItCnt     Gap

*     0+    0                          -33.2000   -27044.9000              --- 
      0     0      -40.9500    62      -33.2000      -40.9500    14915   23.34%

Clique cuts applied:  0
Implied bound cuts applied:  0
Mixed integer rounding cuts applied:  0
Flow path cuts applied:  0

Root node processing (before b&c):
  Real time             =   10.01 sec. (13694.99 ticks)
Parallel b&c, 8 threads:
  Real time             =    0.00 sec. (0.00 ticks)
  Sync time (average)   =    0.00 sec.
  Wait time (average)   =    0.00 sec.
                          ------------
Total (root+branch&cut) =   10.01 sec. (13694.99 ticks)
Gap: 23.34%
Upper bound: -33.2
Lower bound: -40.95
End of CPLEX run. Time: 10.0138 seconds

===== New CPLEX run =====
Instance: /home/yorig/tuner/mpils-tests/instances/miplib/medium-1/neos-3555904-turama.mps
Config: /scratch/yorig/mpils-results-grid-seconds-10-no-mip-start/medium-1/4proc/seed-3/10_neos-3555904-turama_seed-3_20260503_044838/iterated_local_search/run_2_worker_2/ils_config_8585641305697484654.prm
========================

Selected objective sense:  MINIMIZE
Selected objective  name:  Obj
Selected RHS        name:  RHS
Selected bound      name:  Bound
Version identifier: 22.1.2.0 | 2024-11-26 | 0edbb82fd
CPXPARAM_Threads                                 8
CPXPARAM_Parallel                                1
CPXPARAM_MIP_Cuts_Cliques                        1
CPXPARAM_MIP_Cuts_FlowCovers                     2
CPXPARAM_MIP_Cuts_GUBCovers                      -1
CPXPARAM_MIP_Limits_GomoryCand                   400
CPXPARAM_MIP_Cuts_PathCut                        2
CPXPARAM_MIP_Cuts_MIRCut                         1
CPXPARAM_Emphasis_MIP                            1
CPXPARAM_TimeLimit                               10
Tried aggregator 3 times.
MIP Presolve eliminated 88266 rows and 7696 columns.
MIP Presolve modified 93290 coefficients.
Aggregator did 11080 substitutions.
Reduced MIP has 47145 rows, 18685 columns, and 201232 nonzeros.
Reduced MIP has 18685 binaries, 0 generals, 0 SOSs, and 0 indicators.
Presolve time = 0.83 sec. (1435.97 ticks)
Found incumbent of value -33.200000 after 1.05 sec. (1819.77 ticks)
Probing fixed 2456 vars, tightened 0 bounds.
Probing changed sense of 6 constraints.
Probing time = 1.14 sec. (1226.29 ticks)
Tried aggregator 2 times.
MIP Presolve eliminated 9109 rows and 2642 columns.
MIP Presolve modified 5050 coefficients.
Aggregator did 410 substitutions.
Reduced MIP has 37623 rows, 15633 columns, and 145869 nonzeros.
Reduced MIP has 15633 binaries, 0 generals, 0 SOSs, and 0 indicators.
Presolve time = 0.32 sec. (568.73 ticks)
Probing fixed 494 vars, tightened 0 bounds.
Probing time = 0.56 sec. (600.78 ticks)
Tried aggregator 2 times.
Detecting symmetries...
MIP Presolve eliminated 3147 rows and 660 columns.
MIP Presolve modified 588 coefficients.
Aggregator did 651 substitutions.
Reduced MIP has 33825 rows, 14322 columns, and 131337 nonzeros.
Reduced MIP has 14322 binaries, 0 generals, 0 SOSs, and 0 indicators.
Presolve time = 0.29 sec. (517.68 ticks)
Probing time = 0.02 sec. (16.92 ticks)
Clique table members: 87904.
MIP emphasis: integer feasibility.
MIP search method: dynamic search.
Parallel mode: deterministic, using up to 8 threads.
Root relaxation solution time = 1.14 sec. (1414.56 ticks)

        Nodes                                         Cuts/
   Node  Left     Objective  IInf  Best Integer    Best Bound    ItCnt     Gap

*     0+    0                          -33.2000   -27044.9000              --- 
      0     0      -40.9500    62      -33.2000      -40.9500    14915   23.34%

Clique cuts applied:  0
Flow cuts applied:  0
Mixed integer rounding cuts applied:  0
Flow path cuts applied:  0

Root node processing (before b&c):
  Real time             =   10.01 sec. (13706.55 ticks)
Parallel b&c, 8 threads:
  Real time             =    0.00 sec. (0.00 ticks)
  Sync time (average)   =    0.00 sec.
  Wait time (average)   =    0.00 sec.
                          ------------
Total (root+branch&cut) =   10.01 sec. (13706.55 ticks)
Gap: 23.34%
Upper bound: -33.2
Lower bound: -40.95
End of CPLEX run. Time: 10.0139 seconds

===== New CPLEX run =====
Instance: /home/yorig/tuner/mpils-tests/instances/miplib/medium-1/neos-3555904-turama.mps
Config: /scratch/yorig/mpils-results-grid-seconds-10-no-mip-start/medium-1/4proc/seed-3/10_neos-3555904-turama_seed-3_20260503_044838/iterated_local_search/run_2_worker_2/ils_config_7878207268091233570.prm
========================

Selected objective sense:  MINIMIZE
Selected objective  name:  Obj
Selected RHS        name:  RHS
Selected bound      name:  Bound
Version identifier: 22.1.2.0 | 2024-11-26 | 0edbb82fd
CPXPARAM_Threads                                 8
CPXPARAM_Parallel                                1
CPXPARAM_MIP_Cuts_Cliques                        1
CPXPARAM_MIP_Cuts_FlowCovers                     2
CPXPARAM_MIP_Cuts_Implied                        1
CPXPARAM_MIP_Cuts_GUBCovers                      -1
CPXPARAM_MIP_Limits_GomoryCand                   50
CPXPARAM_MIP_Cuts_PathCut                        2
CPXPARAM_MIP_Cuts_MIRCut                         1
CPXPARAM_Emphasis_MIP                            1
CPXPARAM_TimeLimit                               10
Tried aggregator 3 times.
MIP Presolve eliminated 88266 rows and 7696 columns.
MIP Presolve modified 93290 coefficients.
Aggregator did 11080 substitutions.
Reduced MIP has 47145 rows, 18685 columns, and 201232 nonzeros.
Reduced MIP has 18685 binaries, 0 generals, 0 SOSs, and 0 indicators.
Presolve time = 0.83 sec. (1435.97 ticks)
Found incumbent of value -33.200000 after 1.04 sec. (1819.77 ticks)
Probing fixed 2456 vars, tightened 0 bounds.
Probing changed sense of 6 constraints.
Probing time = 1.14 sec. (1226.29 ticks)
Tried aggregator 2 times.
MIP Presolve eliminated 9109 rows and 2642 columns.
MIP Presolve modified 5050 coefficients.
Aggregator did 410 substitutions.
Reduced MIP has 37623 rows, 15633 columns, and 145869 nonzeros.
Reduced MIP has 15633 binaries, 0 generals, 0 SOSs, and 0 indicators.
Presolve time = 0.32 sec. (568.73 ticks)
Probing fixed 494 vars, tightened 0 bounds.
Probing time = 0.56 sec. (600.78 ticks)
Tried aggregator 2 times.
Detecting symmetries...
MIP Presolve eliminated 3147 rows and 660 columns.
MIP Presolve modified 588 coefficients.
Aggregator did 651 substitutions.
Reduced MIP has 33825 rows, 14322 columns, and 131337 nonzeros.
Reduced MIP has 14322 binaries, 0 generals, 0 SOSs, and 0 indicators.
Presolve time = 0.29 sec. (517.68 ticks)
Probing time = 0.02 sec. (16.92 ticks)
Clique table members: 87904.
MIP emphasis: integer feasibility.
MIP search method: dynamic search.
Parallel mode: deterministic, using up to 8 threads.
Root relaxation solution time = 1.14 sec. (1414.56 ticks)

        Nodes                                         Cuts/
   Node  Left     Objective  IInf  Best Integer    Best Bound    ItCnt     Gap

*     0+    0                          -33.2000   -27044.9000              --- 
      0     0      -40.9500    62      -33.2000      -40.9500    14915   23.34%

Clique cuts applied:  0
Implied bound cuts applied:  0
Flow cuts applied:  0
Mixed integer rounding cuts applied:  0
Flow path cuts applied:  0

Root node processing (before b&c):
  Real time             =   10.01 sec. (13742.98 ticks)
Parallel b&c, 8 threads:
  Real time             =    0.00 sec. (0.00 ticks)
  Sync time (average)   =    0.00 sec.
  Wait time (average)   =    0.00 sec.
                          ------------
Total (root+branch&cut) =   10.01 sec. (13742.98 ticks)
Gap: 23.34%
Upper bound: -33.2
Lower bound: -40.95
End of CPLEX run. Time: 10.0139 seconds

===== New CPLEX run =====
Instance: /home/yorig/tuner/mpils-tests/instances/miplib/medium-1/neos-3555904-turama.mps
Config: /scratch/yorig/mpils-results-grid-seconds-10-no-mip-start/medium-1/4proc/seed-3/10_neos-3555904-turama_seed-3_20260503_044838/iterated_local_search/run_2_worker_2/ils_config_13659532559333542263.prm
========================

Selected objective sense:  MINIMIZE
Selected objective  name:  Obj
Selected RHS        name:  RHS
Selected bound      name:  Bound
Version identifier: 22.1.2.0 | 2024-11-26 | 0edbb82fd
CPXPARAM_Threads                                 8
CPXPARAM_Parallel                                1
CPXPARAM_MIP_Cuts_Cliques                        1
CPXPARAM_MIP_Cuts_FlowCovers                     2
CPXPARAM_MIP_Cuts_Implied                        1
CPXPARAM_MIP_Cuts_GUBCovers                      2
CPXPARAM_MIP_Limits_GomoryCand                   400
CPXPARAM_MIP_Cuts_PathCut                        2
CPXPARAM_MIP_Cuts_MIRCut                         1
CPXPARAM_Emphasis_MIP                            1
CPXPARAM_TimeLimit                               10
Tried aggregator 3 times.
MIP Presolve eliminated 88266 rows and 7696 columns.
MIP Presolve modified 93290 coefficients.
Aggregator did 11080 substitutions.
Reduced MIP has 47145 rows, 18685 columns, and 201232 nonzeros.
Reduced MIP has 18685 binaries, 0 generals, 0 SOSs, and 0 indicators.
Presolve time = 0.83 sec. (1435.97 ticks)
Found incumbent of value -33.200000 after 1.04 sec. (1819.77 ticks)
Probing fixed 2456 vars, tightened 0 bounds.
Probing changed sense of 6 constraints.
Probing time = 1.16 sec. (1226.29 ticks)
Tried aggregator 2 times.
MIP Presolve eliminated 9109 rows and 2642 columns.
MIP Presolve modified 5050 coefficients.
Aggregator did 410 substitutions.
Reduced MIP has 37623 rows, 15633 columns, and 145869 nonzeros.
Reduced MIP has 15633 binaries, 0 generals, 0 SOSs, and 0 indicators.
Presolve time = 0.32 sec. (568.73 ticks)
Probing fixed 494 vars, tightened 0 bounds.
Probing time = 0.56 sec. (600.78 ticks)
Tried aggregator 2 times.
Detecting symmetries...
MIP Presolve eliminated 3147 rows and 660 columns.
MIP Presolve modified 588 coefficients.
Aggregator did 651 substitutions.
Reduced MIP has 33825 rows, 14322 columns, and 131337 nonzeros.
Reduced MIP has 14322 binaries, 0 generals, 0 SOSs, and 0 indicators.
Presolve time = 0.29 sec. (517.68 ticks)
Probing time = 0.02 sec. (16.92 ticks)
Clique table members: 87904.
MIP emphasis: integer feasibility.
MIP search method: dynamic search.
Parallel mode: deterministic, using up to 8 threads.
Root relaxation solution time = 1.14 sec. (1414.56 ticks)

        Nodes                                         Cuts/
   Node  Left     Objective  IInf  Best Integer    Best Bound    ItCnt     Gap

*     0+    0                          -33.2000   -27044.9000              --- 
      0     0      -40.9500    62      -33.2000      -40.9500    14915   23.34%

GUB cover cuts applied:  0
Clique cuts applied:  0
Implied bound cuts applied:  0
Flow cuts applied:  0
Mixed integer rounding cuts applied:  0
Flow path cuts applied:  0

Root node processing (before b&c):
  Real time             =   10.01 sec. (13714.54 ticks)
Parallel b&c, 8 threads:
  Real time             =    0.00 sec. (0.00 ticks)
  Sync time (average)   =    0.00 sec.
  Wait time (average)   =    0.00 sec.
                          ------------
Total (root+branch&cut) =   10.01 sec. (13714.54 ticks)
Gap: 23.34%
Upper bound: -33.2
Lower bound: -40.95
End of CPLEX run. Time: 10.014 seconds
